02_FORMAL/tv/RIINA/Domains/ConstantTimeCrypto.tv.smt2
; SPDX-License-Identifier: MPL-2.0
; Copyright (c) 2026 The RIINA Authors.
; Auto-generated from 02_FORMAL/coq/domains/ConstantTimeCrypto.v (26 validations)
; Generated by scripts/generate-full-stack.py
;
; Translation Validation for ConstantTimeCrypto
; Layer 9: Verifies compiler backend preserves formal semantics.
; Each assertion checks source IR ≡ target code for a proven property.

(set-logic QF_LIA)
(set-option :produce-models true)

; IR node representation
(declare-sort IRNode 0)
(declare-sort TargetNode 0)

; ct_branch_free: source semantics (matches Coq)
(declare-fun source_ct_branch_free () Bool)
(declare-fun target_ct_branch_free () Bool)
(assert (= source_ct_branch_free target_ct_branch_free))

; ct_memory_safe: source semantics (matches Coq)
(declare-fun source_ct_memory_safe () Bool)
(declare-fun target_ct_memory_safe () Bool)
(assert (= source_ct_memory_safe target_ct_memory_safe))

; ct_operation_safe: source semantics (matches Coq)
(declare-fun source_ct_operation_safe () Bool)
(declare-fun target_ct_operation_safe () Bool)
(assert (= source_ct_operation_safe target_ct_operation_safe))

; fully_constant_time: source semantics (matches Coq)
(declare-fun source_fully_constant_time () Bool)
(declare-fun target_fully_constant_time () Bool)
(assert (= source_fully_constant_time target_fully_constant_time))

; crypto_safe: source semantics (matches Coq)
(declare-fun source_crypto_safe () Bool)
(declare-fun target_crypto_safe () Bool)
(assert (= source_crypto_safe target_crypto_safe))

; riina_ct_config: source semantics (matches Coq)
(declare-fun source_riina_ct_config () Bool)
(declare-fun target_riina_ct_config () Bool)
(assert (= source_riina_ct_config target_riina_ct_config))

; riina_aes: source semantics (matches Coq)
(declare-fun source_riina_aes () Bool)
(declare-fun target_riina_aes () Bool)
(assert (= source_riina_aes target_riina_aes))

; riina_sha256: source semantics (matches Coq)
(declare-fun source_riina_sha256 () Bool)
(declare-fun target_riina_sha256 () Bool)
(assert (= source_riina_sha256 target_riina_sha256))

; andb_true_iff: translation preserves property (matches Coq: Lemma)
(declare-fun source_andb_true_iff () Bool)
(declare-fun target_andb_true_iff () Bool)
(assert (= source_andb_true_iff target_andb_true_iff))

; CT_001_branch_free: translation preserves property (matches Coq: Theorem)
(declare-fun source_CT_001_branch_free () Bool)
(declare-fun target_CT_001_branch_free () Bool)
(assert (= source_CT_001_branch_free target_CT_001_branch_free))

; CT_002_memory_safe: translation preserves property (matches Coq: Theorem)
(declare-fun source_CT_002_memory_safe () Bool)
(declare-fun target_CT_002_memory_safe () Bool)
(assert (= source_CT_002_memory_safe target_CT_002_memory_safe))

; CT_003_operation_safe: translation preserves property (matches Coq: Theorem)
(declare-fun source_CT_003_operation_safe () Bool)
(declare-fun target_CT_003_operation_safe () Bool)
(assert (= source_CT_003_operation_safe target_CT_003_operation_safe))

; CT_004_fully_ct: translation preserves property (matches Coq: Theorem)
(declare-fun source_CT_004_fully_ct () Bool)
(declare-fun target_CT_004_fully_ct () Bool)
(assert (= source_CT_004_fully_ct target_CT_004_fully_ct))

; CT_005_no_secret_branches: translation preserves property (matches Coq: Theorem)
(declare-fun source_CT_005_no_secret_branches () Bool)
(declare-fun target_CT_005_no_secret_branches () Bool)
(assert (= source_CT_005_no_secret_branches target_CT_005_no_secret_branches))

; CT_006_branchless_compare: translation preserves property (matches Coq: Theorem)
(declare-fun source_CT_006_branchless_compare () Bool)
(declare-fun target_CT_006_branchless_compare () Bool)
(assert (= source_CT_006_branchless_compare target_CT_006_branchless_compare))

; CT_007_no_secret_addresses: translation preserves property (matches Coq: Theorem)
(declare-fun source_CT_007_no_secret_addresses () Bool)
(declare-fun target_CT_007_no_secret_addresses () Bool)
(assert (= source_CT_007_no_secret_addresses target_CT_007_no_secret_addresses))

; CT_008_no_cache_timing: translation preserves property (matches Coq: Theorem)
(declare-fun source_CT_008_no_cache_timing () Bool)
(declare-fun target_CT_008_no_cache_timing () Bool)
(assert (= source_CT_008_no_cache_timing target_CT_008_no_cache_timing))

; CT_009_no_var_time: translation preserves property (matches Coq: Theorem)
(declare-fun source_CT_009_no_var_time () Bool)
(declare-fun target_CT_009_no_var_time () Bool)
(assert (= source_CT_009_no_var_time target_CT_009_no_var_time))

; CT_010_constant_loops: translation preserves property (matches Coq: Theorem)
(declare-fun source_CT_010_constant_loops () Bool)
(declare-fun target_CT_010_constant_loops () Bool)
(assert (= source_CT_010_constant_loops target_CT_010_constant_loops))

; CT_011_full_implies_branch: translation preserves property (matches Coq: Theorem)
(declare-fun source_CT_011_full_implies_branch () Bool)
(declare-fun target_CT_011_full_implies_branch () Bool)
(assert (= source_CT_011_full_implies_branch target_CT_011_full_implies_branch))

; CT_012_full_implies_memory: translation preserves property (matches Coq: Theorem)
(declare-fun source_CT_012_full_implies_memory () Bool)
(declare-fun target_CT_012_full_implies_memory () Bool)
(assert (= source_CT_012_full_implies_memory target_CT_012_full_implies_memory))

; CT_013_full_implies_op: translation preserves property (matches Coq: Theorem)
(declare-fun source_CT_013_full_implies_op () Bool)
(declare-fun target_CT_013_full_implies_op () Bool)
(assert (= source_CT_013_full_implies_op target_CT_013_full_implies_op))

; CT_014_riina_aes_safe: translation preserves property (matches Coq: Theorem)
(declare-fun source_CT_014_riina_aes_safe () Bool)
(declare-fun target_CT_014_riina_aes_safe () Bool)
(assert (= source_CT_014_riina_aes_safe target_CT_014_riina_aes_safe))

; CT_015_riina_sha256_safe: translation preserves property (matches Coq: Theorem)
(declare-fun source_CT_015_riina_sha256_safe () Bool)
(declare-fun target_CT_015_riina_sha256_safe () Bool)
(assert (= source_CT_015_riina_sha256_safe target_CT_015_riina_sha256_safe))

; CT_016_riina_aes_ct: translation preserves property (matches Coq: Theorem)
(declare-fun source_CT_016_riina_aes_ct () Bool)
(declare-fun target_CT_016_riina_aes_ct () Bool)
(assert (= source_CT_016_riina_aes_ct target_CT_016_riina_aes_ct))

; CT_017_riina_aes_bitsliced: translation preserves property (matches Coq: Theorem)
(declare-fun source_CT_017_riina_aes_bitsliced () Bool)
(declare-fun target_CT_017_riina_aes_bitsliced () Bool)
(assert (= source_CT_017_riina_aes_bitsliced target_CT_017_riina_aes_bitsliced))

; CT_018_safe_implies_ct: translation preserves property (matches Coq: Theorem)
(declare-fun source_CT_018_safe_implies_ct () Bool)
(declare-fun target_CT_018_safe_implies_ct () Bool)
(assert (= source_CT_018_safe_implies_ct target_CT_018_safe_implies_ct))

; CT_019_safe_implies_no_tables: translation preserves property (matches Coq: Theorem)
(declare-fun source_CT_019_safe_implies_no_tables () Bool)
(declare-fun target_CT_019_safe_implies_no_tables () Bool)
(assert (= source_CT_019_safe_implies_no_tables target_CT_019_safe_implies_no_tables))

; CT_020_riina_no_branches: translation preserves property (matches Coq: Theorem)
(declare-fun source_CT_020_riina_no_branches () Bool)
(declare-fun target_CT_020_riina_no_branches () Bool)
(assert (= source_CT_020_riina_no_branches target_CT_020_riina_no_branches))

; CT_021_riina_no_addresses: translation preserves property (matches Coq: Theorem)
(declare-fun source_CT_021_riina_no_addresses () Bool)
(declare-fun target_CT_021_riina_no_addresses () Bool)
(assert (= source_CT_021_riina_no_addresses target_CT_021_riina_no_addresses))

; CT_022_full_implies_no_branches: translation preserves property (matches Coq: Theorem)
(declare-fun source_CT_022_full_implies_no_branches () Bool)
(declare-fun target_CT_022_full_implies_no_branches () Bool)
(assert (= source_CT_022_full_implies_no_branches target_CT_022_full_implies_no_branches))

; CT_023_full_implies_no_cache: translation preserves property (matches Coq: Theorem)
(declare-fun source_CT_023_full_implies_no_cache () Bool)
(declare-fun target_CT_023_full_implies_no_cache () Bool)
(assert (= source_CT_023_full_implies_no_cache target_CT_023_full_implies_no_cache))

; CT_024_full_implies_const_loops: translation preserves property (matches Coq: Theorem)
(declare-fun source_CT_024_full_implies_const_loops () Bool)
(declare-fun target_CT_024_full_implies_const_loops () Bool)
(assert (= source_CT_024_full_implies_const_loops target_CT_024_full_implies_const_loops))

; CT_025_complete_ct_security: translation preserves property (matches Coq: Theorem)
(declare-fun source_CT_025_complete_ct_security () Bool)
(declare-fun target_CT_025_complete_ct_security () Bool)
(assert (= source_CT_025_complete_ct_security target_CT_025_complete_ct_security))

; Verify all translation validations are satisfiable
(check-sat)
(exit)
